outputs/case_82.model.txt
audit_committee_member_count = 0
audit_committee_approval_count = 0
solicitation_handling_system_established = True
internal_control_executed = True
has_fixed_business_location = True
board_opposition = False
board_approved_internal_control = False
has_notary_license = False
internal_control_deficiencies_reported = False
opposition_recorded_and_sent = False
audit_system_established = True
board_approval_count = 0
audit_system_executed = True
board_member_count = 0
internal_control_established = True
annual_revenue = 300000000
internal_control_deficiencies_corrected_timely = False
has_broker_license = False
solicitation_handling_system_executed = True
has_agent_license = True
has_dedicated_bookkeeping = True
board_meeting_record_includes_audit_committee_resolution = False
is_publicly_listed = False
has_audit_committee = False
internal_control_violation = False
internal_control_execution_required = True
internal_control_comprehensive_compliance = False
single_license_only = True
penalty = False
internal_control_monitoring_and_correction = False
audit_committee_disapproval_resolution = True
board_opposition_recorded = True
internal_control_compliance = True
fixed_business_location_and_bookkeeping = True
board_approval_required = 0
audit_committee_approval_required = 1
internal_control_required = True